c Random 3-SAT formula
c Number of variables: 7
c Number of clauses: 25
p cnf 7 25
-2 4 7 0
4 6 2 0
-1 -4 7 0
2 -1 -4 0
-2 6 -3 0
2 -1 7 0
3 -7 6 0
7 -2 -3 0
6 -2 4 0
-4 -1 6 0
-6 3 -1 0
5 3 -6 0
-5 1 -6 0
-7 2 -5 0
-4 -2 1 0
-3 5 4 0
-5 -3 7 0
2 3 -4 0
6 4 -7 0
5 -6 -2 0
4 -7 -6 0
-3 5 -7 0
3 6 1 0
4 -2 -5 0
3 7 -5 0
